p cnf 381 476
1 332 0
1 357 0
2 333 0
2 358 0
3 334 0
3 359 0
4 335 0
4 360 0
5 31 0
5 336 0
6 26 0
6 337 0
7 32 0
7 338 0
8 27 0
8 339 0
9 31 0
9 340 0
10 26 0
10 341 0
11 32 0
11 342 0
12 27 0
12 343 0
13 28 0
13 344 0
14 34 0
14 345 0
15 29 0
15 346 0
16 35 0
16 347 0
17 28 0
17 348 0
18 34 0
18 349 0
19 29 0
19 350 0
20 35 0
20 351 0
21 30 0
21 352 0
22 56 0
22 353 0
23 44 0
23 354 0
24 45 0
24 355 0
25 50 0
25 356 0
26 39 0
26 52 0
27 37 0
27 60 0
28 30 0
28 33 0
29 40 0
29 47 0
30 42 0
30 61 0
31 33 0
31 51 0
32 36 0
32 46 0
33 38 0
33 54 0
34 43 0
34 58 0
35 41 0
35 55 0
36 57 0
37 48 0
38 48 0
39 46 0
40 58 0
41 49 0
42 49 0
43 47 0
44 59 0
45 50 0
46 53 0
46 62 0
47 67 0
47 86 0
48 77 0
48 88 0
49 65 0
49 66 0
50 71 0
50 87 0
51 98 0
52 57 0
53 84 0
54 60 0
55 61 0
56 59 0
57 98 0
57 111 0
58 64 0
58 80 0
59 70 0
59 82 0
60 63 0
60 78 0
61 68 0
61 81 0
62 72 0
63 73 0
64 72 0
65 73 0
66 74 0
67 75 0
68 69 0
69 74 0
70 75 0
71 76 0
72 90 0
72 99 0
73 92 0
73 101 0
74 76 0
74 85 0
75 95 0
75 108 0
76 97 0
76 100 0
77 83 0
78 79 0
79 83 0
80 84 0
81 87 0
82 86 0
83 85 0
83 89 0
84 91 0
84 105 0
85 93 0
85 99 0
86 94 0
86 100 0
87 96 0
87 102 0
88 111 0
89 109 0
90 109 0
91 101 0
92 112 0
93 110 0
94 110 0
95 102 0
96 113 0
97 154 0
98 103 0
98 114 0
99 119 0
99 120 0
100 106 0
100 107 0
101 104 0
101 118 0
102 123 0
102 127 0
103 124 0
104 125 0
105 112 0
106 128 0
107 160 0
108 113 0
109 116 0
109 124 0
110 122 0
110 126 0
111 115 0
111 125 0
112 121 0
112 127 0
113 148 0
113 149 0
114 135 0
115 136 0
116 117 0
117 135 0
118 136 0
119 126 0
120 138 0
121 139 0
122 138 0
123 139 0
124 129 0
124 143 0
125 130 0
125 141 0
126 128 0
126 131 0
127 133 0
127 144 0
128 132 0
128 134 0
129 156 0
130 164 0
131 137 0
132 146 0
133 151 0
134 165 0
135 137 0
135 155 0
136 140 0
136 150 0
137 142 0
137 158 0
138 147 0
138 162 0
139 145 0
139 159 0
140 161 0
141 152 0
142 152 0
143 150 0
144 162 0
145 153 0
146 153 0
147 151 0
148 163 0
149 154 0
150 157 0
150 166 0
151 171 0
151 190 0
152 181 0
152 192 0
153 169 0
153 170 0
154 175 0
154 191 0
155 202 0
156 161 0
157 188 0
158 164 0
159 165 0
160 163 0
161 202 0
161 215 0
162 168 0
162 184 0
163 174 0
163 186 0
164 167 0
164 182 0
165 172 0
165 185 0
166 176 0
167 177 0
168 176 0
169 177 0
170 178 0
171 179 0
172 173 0
173 178 0
174 179 0
175 180 0
176 194 0
176 203 0
177 196 0
177 205 0
178 180 0
178 189 0
179 199 0
179 212 0
180 201 0
180 204 0
181 187 0
182 183 0
183 187 0
184 188 0
185 191 0
186 190 0
187 189 0
187 193 0
188 195 0
188 209 0
189 197 0
189 203 0
190 198 0
190 204 0
191 200 0
191 206 0
192 215 0
193 213 0
194 213 0
195 205 0
196 216 0
197 214 0
198 214 0
199 206 0
200 217 0
201 258 0
202 207 0
202 218 0
203 223 0
203 224 0
204 210 0
204 211 0
205 208 0
205 222 0
206 227 0
206 231 0
207 228 0
208 229 0
209 216 0
210 232 0
211 264 0
212 217 0
213 220 0
213 228 0
214 226 0
214 230 0
215 219 0
215 229 0
216 225 0
216 231 0
217 252 0
217 253 0
218 239 0
219 240 0
220 221 0
221 239 0
222 240 0
223 230 0
224 242 0
225 243 0
226 242 0
227 243 0
228 233 0
228 247 0
229 234 0
229 245 0
230 232 0
230 235 0
231 237 0
231 248 0
232 236 0
232 238 0
233 260 0
234 268 0
235 241 0
236 250 0
237 255 0
238 269 0
239 241 0
239 259 0
240 244 0
240 254 0
241 246 0
241 262 0
242 251 0
242 266 0
243 249 0
243 263 0
244 265 0
245 256 0
246 256 0
247 254 0
248 266 0
249 257 0
250 257 0
251 255 0
252 267 0
253 258 0
254 261 0
254 270 0
255 275 0
255 294 0
256 285 0
256 296 0
257 273 0
257 274 0
258 279 0
258 295 0
259 306 0
260 265 0
261 292 0
262 268 0
263 269 0
264 267 0
265 306 0
265 319 0
266 272 0
266 288 0
267 278 0
267 290 0
268 271 0
268 286 0
269 276 0
269 289 0
270 280 0
271 281 0
272 280 0
273 281 0
274 282 0
275 283 0
276 277 0
277 282 0
278 283 0
279 284 0
280 298 0
280 307 0
281 300 0
281 309 0
282 284 0
282 293 0
283 303 0
283 316 0
284 305 0
284 308 0
285 291 0
286 287 0
287 291 0
288 292 0
289 295 0
290 294 0
291 293 0
291 297 0
292 299 0
292 313 0
293 301 0
293 307 0
294 302 0
294 308 0
295 304 0
295 310 0
296 319 0
297 317 0
298 317 0
299 309 0
300 320 0
301 318 0
302 318 0
303 310 0
304 321 0
305 381 0
306 311 0
306 322 0
307 327 0
307 328 0
308 314 0
308 315 0
309 312 0
309 326 0
310 331 0
310 375 0
311 362 0
312 368 0
313 320 0
314 377 0
315 378 0
316 321 0
317 324 0
317 366 0
318 330 0
318 373 0
319 323 0
319 364 0
320 329 0
320 371 0
321 379 0
321 380 0
322 361 0
323 363 0
324 325 0
325 365 0
326 367 0
327 369 0
328 370 0
329 372 0
330 374 0
331 376 0
